s 0
v 0 0 0 0 0 0 0 0 0 0 0 0 0 0 -15 0 0 0 0 0 0 0 0 0 0 0 0 0 -29 0 -31 0 0 0 0 0 0 0 0 0 0 0 0 0 0 0 0 0 0 0 0 0 0 0 0 0 0 0 0 0 0 0 0 0 -65 0 0 0 0 0 0 0 0 0 0 0 0 0 0 0 0 0 0 -84 85 0 -87 0 0 0 0 0 0 0 -95 0 0 0 0 0 0 0 -103 0 0 0 -107 0 109 0 -111 -112 0 114 -115 116 0 0 -119 -120 0 122 0 0 0 0 -127 128 129 0 131 -132 0 0 0 0 0 0 0 0 0 0 0 0 -145 146 0 0 0 0 151 0 -153 0 0 0 0 0 0 -160 0 0 0 0 0 0 0 -168 0 0 0 0 0 0 0 0 -177 0 0 0 0 0 0 0 0 0 0 0 0 0 0 0 0 0 0 0 -197 0 0 0 201 202 0 0 0 0 0 0 0 0 0 0 0 0 0 0 0 -218 0 0 0 0 0 0 0 0 0 0 0 0 0 -232 -233 0 0 0 0 0 0 0 0 0 0 0 0 0 0 0 0 0 0 0 0 0 0 0 0 0 -259 0 0 0 0 0 0 -266 0 0 0 0 0 0 0 0 0 0 0 278 0 0 0 0 0 0 0 286 -287 0 0 0 0 -292 0 0 0 -296 0 0 0 0 0 0 0 0 0 -306 -307 0 0 0 0 0 -313 0 0 0 0 0 0 0 0 0 0 0 0 0 0 0 0 0 -331 332 0 0 0 0 337 338 0 0 0 0 0 0 0 346 0 0 349 0 0 0 0 354
t 240001